
  12    4
  10   10   10   10

   0   0   0   0   0   5 2 3 4 5 8 
   6  10  10  10  10   2 10 7 
   8  10  10  10  10   2 10 6 
   3  10  10  10  10   2 11 9 
   2  10  10  10  10   2 10 9 
   3  10  10  10  10   1 9 
  10  10  10  10  10   1 9 
   8  10  10  10  10   1 10 
   3  10  10  10  10   1 12
   7  10  10  10  10   1 12
  10  10  10  10  10   1 12
   0   0   0   0   0   0 
